(declare-const X String)
; Host\x3A\sToolbarServerserver\x7D\x7BSysuptime\x3A
(assert (not (str.in_re X (re.++ (str.to_re "Host:") (re.union (str.to_re " ") (str.to_re "\u{9}") (str.to_re "\u{a}") (str.to_re "\u{c}") (str.to_re "\u{d}")) (str.to_re "ToolbarServerserver}{Sysuptime:\u{a}")))))
; /\x2ewav([\?\x5c\x2f]|$)/smiU
(assert (not (str.in_re X (re.++ (str.to_re "/.wav") (re.union (str.to_re "?") (str.to_re "\u{5c}") (str.to_re "/")) (str.to_re "/smiU\u{a}")))))
; /^data\x7c\d+\x7c\d+\x7C[a-z0-9]+\x2E[a-z]{2,3}\x7C[a-z0-9]+\x7C/
(assert (str.in_re X (re.++ (str.to_re "/data|") (re.+ (re.range "0" "9")) (str.to_re "|") (re.+ (re.range "0" "9")) (str.to_re "|") (re.+ (re.union (re.range "a" "z") (re.range "0" "9"))) (str.to_re ".") ((_ re.loop 2 3) (re.range "a" "z")) (str.to_re "|") (re.+ (re.union (re.range "a" "z") (re.range "0" "9"))) (str.to_re "|/\u{a}"))))
; /\x2ejpg([\?\x5c\x2f]|$)/smiU
(assert (str.in_re X (re.++ (str.to_re "/.jpg") (re.union (str.to_re "?") (str.to_re "\u{5c}") (str.to_re "/")) (str.to_re "/smiU\u{a}"))))
(check-sat)

(exit)
